N = 8;
Capacity = 13;
Demand = [4, 8, 2, 2, 4, 6, 6, 4];
Distance = [|
  0, 58, 29, 51, 43, 26, 42, 36, 10
| 58, 0, 80, 73, 73, 84, 16, 68, 65
| 29, 80, 0, 77, 29, 14, 65, 24, 19
| 51, 73, 77, 0, 94, 67, 62, 87, 59
| 43, 73, 29, 94, 0, 43, 61, 7, 36
| 26, 84, 14, 67, 43, 0, 68, 37, 18
| 42, 16, 65, 62, 61, 68, 0, 56, 50
| 36, 68, 24, 87, 7, 37, 56, 0, 29
| 10, 65, 19, 59, 36, 18, 50, 29, 0
|];
